NAME          DCAP_3_4_2_300_SS268
ROWS
 N  OBJ
 L  CON1
 L  CON2
 L  CON3
 L  CON4
 L  CON5
 L  CON6
 L  CON7
 L  CON8
 L  CON9
 L  CON10
 L  CON11
 L  CON12
 E  CON13
 E  CON14
 E  CON15
 E  CON16
 E  CON17
 E  CON18
 E  CON19
 E  CON20
COLUMNS
    x[1,1]    OBJ       6.180167      CON1      1.000000    
    x[1,1]    CON7      -1.000000     CON8      -1.000000   
    x[1,2]    OBJ       5.039546      CON2      1.000000    
    x[1,2]    CON8      -1.000000   
    x[2,1]    OBJ       6.732585      CON3      1.000000    
    x[2,1]    CON9      -1.000000     CON10     -1.000000   
    x[2,2]    OBJ       7.443064      CON4      1.000000    
    x[2,2]    CON10     -1.000000   
    x[3,1]    OBJ       6.563535      CON5      1.000000    
    x[3,1]    CON11     -1.000000     CON12     -1.000000   
    x[3,2]    OBJ       6.054841      CON6      1.000000    
    x[3,2]    CON12     -1.000000   
    MARKER    'MARKER'                'INTORG'
    u[1,1]    OBJ       48.076654     CON1      -1.000000   
    u[1,2]    OBJ       49.466655     CON2      -1.000000   
    u[2,1]    OBJ       49.996186     CON3      -1.000000   
    u[2,2]    OBJ       32.230043     CON4      -1.000000   
    u[3,1]    OBJ       20.066487     CON5      -1.000000   
    u[3,2]    OBJ       27.484319     CON6      -1.000000   
    y[1,1,1]  OBJ       8.050766      CON7      0.617237    
    y[1,1,1]  CON13     1.000000    
    y[1,1,2]  OBJ       8.597058      CON8      0.878444    
    y[1,1,2]  CON14     1.000000    
    y[1,2,1]  OBJ       6.450519      CON7      1.111545    
    y[1,2,1]  CON15     1.000000    
    y[1,2,2]  OBJ       7.367764      CON8      0.961146    
    y[1,2,2]  CON16     1.000000    
    y[1,3,1]  OBJ       5.283412      CON7      0.688699    
    y[1,3,1]  CON17     1.000000    
    y[1,3,2]  OBJ       8.812824      CON8      0.694983    
    y[1,3,2]  CON18     1.000000    
    y[1,4,1]  OBJ       8.446149      CON7      1.493946    
    y[1,4,1]  CON19     1.000000    
    y[1,4,2]  OBJ       8.952466      CON8      1.017629    
    y[1,4,2]  CON20     1.000000    
    y[2,1,1]  OBJ       9.575767      CON9      0.617237    
    y[2,1,1]  CON13     1.000000    
    y[2,1,2]  OBJ       9.395064      CON10     0.878444    
    y[2,1,2]  CON14     1.000000    
    y[2,2,1]  OBJ       9.601183      CON9      1.111545    
    y[2,2,1]  CON15     1.000000    
    y[2,2,2]  OBJ       5.648496      CON10     0.961146    
    y[2,2,2]  CON16     1.000000    
    y[2,3,1]  OBJ       8.216720      CON9      0.688699    
    y[2,3,1]  CON17     1.000000    
    y[2,3,2]  OBJ       9.539914      CON10     0.694983    
    y[2,3,2]  CON18     1.000000    
    y[2,4,1]  OBJ       5.025944      CON9      1.493946    
    y[2,4,1]  CON19     1.000000    
    y[2,4,2]  OBJ       6.578406      CON10     1.017629    
    y[2,4,2]  CON20     1.000000    
    y[3,1,1]  OBJ       8.032931      CON11     0.617237    
    y[3,1,1]  CON13     1.000000    
    y[3,1,2]  OBJ       6.603799      CON12     0.878444    
    y[3,1,2]  CON14     1.000000    
    y[3,2,1]  OBJ       7.100565      CON11     1.111545    
    y[3,2,1]  CON15     1.000000    
    y[3,2,2]  OBJ       5.028181      CON12     0.961146    
    y[3,2,2]  CON16     1.000000    
    y[3,3,1]  OBJ       9.962509      CON11     0.688699    
    y[3,3,1]  CON17     1.000000    
    y[3,3,2]  OBJ       6.312257      CON12     0.694983    
    y[3,3,2]  CON18     1.000000    
    y[3,4,1]  OBJ       8.529756      CON11     1.493946    
    y[3,4,1]  CON19     1.000000    
    y[3,4,2]  OBJ       7.977672      CON12     1.017629    
    y[3,4,2]  CON20     1.000000    
    z[1,1]    OBJ       585.985536    CON13     1.000000    
    z[1,2]    OBJ       991.940021    CON14     1.000000    
    z[2,1]    OBJ       623.942151    CON15     1.000000    
    z[2,2]    OBJ       507.686257    CON16     1.000000    
    z[3,1]    OBJ       514.657184    CON17     1.000000    
    z[3,2]    OBJ       654.379207    CON18     1.000000    
    z[4,1]    OBJ       667.388680    CON19     1.000000    
    z[4,2]    OBJ       527.748481    CON20     1.000000    
    MARKER    'MARKER'                 'INTEND'
RHS
    RHS       CON1      -0.000000     CON2      -0.000000   
    RHS       CON3      -0.000000     CON4      -0.000000   
    RHS       CON5      -0.000000     CON6      -0.000000   
    RHS       CON7      -0.000000     CON8      -0.000000   
    RHS       CON9      -0.000000     CON10     -0.000000   
    RHS       CON11     -0.000000     CON12     -0.000000   
    RHS       CON13     1.000000      CON14     1.000000    
    RHS       CON15     1.000000      CON16     1.000000    
    RHS       CON17     1.000000      CON18     1.000000    
    RHS       CON19     1.000000      CON20     1.000000    
BOUNDS
 BV BOUND     u[1,1]  
 BV BOUND     u[1,2]  
 BV BOUND     u[2,1]  
 BV BOUND     u[2,2]  
 BV BOUND     u[3,1]  
 BV BOUND     u[3,2]  
 BV BOUND     y[1,1,1]
 BV BOUND     y[1,1,2]
 BV BOUND     y[1,2,1]
 BV BOUND     y[1,2,2]
 BV BOUND     y[1,3,1]
 BV BOUND     y[1,3,2]
 BV BOUND     y[1,4,1]
 BV BOUND     y[1,4,2]
 BV BOUND     y[2,1,1]
 BV BOUND     y[2,1,2]
 BV BOUND     y[2,2,1]
 BV BOUND     y[2,2,2]
 BV BOUND     y[2,3,1]
 BV BOUND     y[2,3,2]
 BV BOUND     y[2,4,1]
 BV BOUND     y[2,4,2]
 BV BOUND     y[3,1,1]
 BV BOUND     y[3,1,2]
 BV BOUND     y[3,2,1]
 BV BOUND     y[3,2,2]
 BV BOUND     y[3,3,1]
 BV BOUND     y[3,3,2]
 BV BOUND     y[3,4,1]
 BV BOUND     y[3,4,2]
 BV BOUND     z[1,1]  
 BV BOUND     z[1,2]  
 BV BOUND     z[2,1]  
 BV BOUND     z[2,2]  
 BV BOUND     z[3,1]  
 BV BOUND     z[3,2]  
 BV BOUND     z[4,1]  
 BV BOUND     z[4,2]  
ENDATA
